81
0 34 59 65 26 63 33 68 27 77 
58 39 66 57 19 49 53 1 60 47 
12 29 32 38 13 78 43 41 54 45 
51 69 10 2 75 72 80 40 11 50 
16 9 36 5 56 42 64 8 67 6 
52 55 44 3 31 74 24 70 61 18 
46 23 62 17 30 76 71 25 21 7 
35 37 22 28 14 73 79 20 15 48 
4 
